MoS2 (v1.0)
   1.00000000000000
     3.1838367302116679    0.0000000000000000    0.0000000000000000
    -1.5919183651058337    2.7572834898814147    0.0000000000000000
     0.0000000000000000    0.0000000000000000   20.0000000000000000
   Mo   S 
    1    2
Direct
  0.0000000000000000  0.0000000000000000  0.5000000000000000
  0.6666666666666667  0.3333333333333333  0.5781122817086679
  0.6666666666666667  0.3333333333333333  0.4218877182913321
