SYSTEM = SCF
# ISTART = 0
ICHARG = 2
EFERMI = MIDGAP
ENCUT = 450
EDIFF = 1e-8
EDIFFG = -1e-2
PREC = Accurate
ADDGRID = .TRUE.
LREAL = .FALSE.
# LWAVE = .FALSE.
# LCHARG = .FALSE.
ISMEAR = 0
SIGMA = 0.05
NELMIN = 6
NELM = 60

## Band ##
LORBIT = 11
NEDOS = 2001

## PBE ##
ISTART = 0
