0.020  15  15   1   27  0.040   54    3   20   11   23           # Parameters to Generate KPOINTS (Do NOT Edit This Line)
    81
Reciprocal lattice
    0.00000000000000    0.00000000000000    0.00000000000000     1
    0.06666666666667    0.00000000000000    0.00000000000000     6
    0.13333333333333    0.00000000000000    0.00000000000000     6
    0.20000000000000    0.00000000000000    0.00000000000000     6
    0.26666666666667    0.00000000000000    0.00000000000000     6
    0.33333333333333    0.00000000000000    0.00000000000000     6
    0.40000000000000    0.00000000000000    0.00000000000000     6
    0.46666666666667    0.00000000000000    0.00000000000000     6
    0.06666666666667    0.06666666666667    0.00000000000000     6
    0.13333333333333    0.06666666666667    0.00000000000000    12
    0.20000000000000    0.06666666666667    0.00000000000000    12
    0.26666666666667    0.06666666666667    0.00000000000000    12
    0.33333333333333    0.06666666666667    0.00000000000000    12
    0.40000000000000    0.06666666666667    0.00000000000000    12
    0.46666666666667    0.06666666666667    0.00000000000000     6
    0.13333333333333    0.13333333333333    0.00000000000000     6
    0.20000000000000    0.13333333333333    0.00000000000000    12
    0.26666666666667    0.13333333333333    0.00000000000000    12
    0.33333333333333    0.13333333333333    0.00000000000000    12
    0.40000000000000    0.13333333333333    0.00000000000000    12
    0.20000000000000    0.20000000000000    0.00000000000000     6
    0.26666666666667    0.20000000000000    0.00000000000000    12
    0.33333333333333    0.20000000000000    0.00000000000000    12
    0.40000000000000    0.20000000000000    0.00000000000000     6
    0.26666666666667    0.26666666666667    0.00000000000000     6
    0.33333333333333    0.26666666666667    0.00000000000000    12
    0.33333333333333    0.33333333333333    0.00000000000000     2
    0.00000000000000    0.00000000000000    0.00000000000000     0
    0.02631578947368    0.00000000000000    0.00000000000000     0
    0.05263157894737    0.00000000000000    0.00000000000000     0
    0.07894736842105    0.00000000000000    0.00000000000000     0
    0.10526315789474    0.00000000000000    0.00000000000000     0
    0.13157894736842    0.00000000000000    0.00000000000000     0
    0.15789473684211    0.00000000000000    0.00000000000000     0
    0.18421052631579    0.00000000000000    0.00000000000000     0
    0.21052631578947    0.00000000000000    0.00000000000000     0
    0.23684210526316    0.00000000000000    0.00000000000000     0
    0.26315789473684    0.00000000000000    0.00000000000000     0
    0.28947368421053    0.00000000000000    0.00000000000000     0
    0.31578947368421    0.00000000000000    0.00000000000000     0
    0.34210526315789    0.00000000000000    0.00000000000000     0
    0.36842105263158    0.00000000000000    0.00000000000000     0
    0.39473684210526    0.00000000000000    0.00000000000000     0
    0.42105263157895    0.00000000000000    0.00000000000000     0
    0.44736842105263    0.00000000000000    0.00000000000000     0
    0.47368421052632    0.00000000000000    0.00000000000000     0
    0.50000000000000    0.00000000000000    0.00000000000000     0
    0.50000000000000    0.00000000000000    0.00000000000000     0
    0.48333333333000    0.03333333333000    0.00000000000000     0
    0.46666666666000    0.06666666666000    0.00000000000000     0
    0.44999999999000    0.09999999999000    0.00000000000000     0
    0.43333333332000    0.13333333332000    0.00000000000000     0
    0.41666666665000    0.16666666665000    0.00000000000000     0
    0.39999999998000    0.19999999998000    0.00000000000000     0
    0.38333333331000    0.23333333331000    0.00000000000000     0
    0.36666666664000    0.26666666664000    0.00000000000000     0
    0.34999999997000    0.29999999997000    0.00000000000000     0
    0.33333333330000    0.33333333330000    0.00000000000000     0
    0.33333333330000    0.33333333330000    0.00000000000000     0
    0.31818181815000    0.31818181815000    0.00000000000000     0
    0.30303030300000    0.30303030300000    0.00000000000000     0
    0.28787878785000    0.28787878785000    0.00000000000000     0
    0.27272727270000    0.27272727270000    0.00000000000000     0
    0.25757575755000    0.25757575755000    0.00000000000000     0
    0.24242424240000    0.24242424240000    0.00000000000000     0
    0.22727272725000    0.22727272725000    0.00000000000000     0
    0.21212121210000    0.21212121210000    0.00000000000000     0
    0.19696969695000    0.19696969695000    0.00000000000000     0
    0.18181818180000    0.18181818180000    0.00000000000000     0
    0.16666666665000    0.16666666665000    0.00000000000000     0
    0.15151515150000    0.15151515150000    0.00000000000000     0
    0.13636363635000    0.13636363635000    0.00000000000000     0
    0.12121212120000    0.12121212120000    0.00000000000000     0
    0.10606060605000    0.10606060605000    0.00000000000000     0
    0.09090909090000    0.09090909090000    0.00000000000000     0
    0.07575757575000    0.07575757575000    0.00000000000000     0
    0.06060606060000    0.06060606060000    0.00000000000000     0
    0.04545454545000    0.04545454545000    0.00000000000000     0
    0.03030303030000    0.03030303030000    0.00000000000000     0
    0.01515151515000    0.01515151515000    0.00000000000000     0
    0.00000000000000    0.00000000000000    0.00000000000000     0
