208344ed07ee74b7947eda38d5d03885c7749cfd
1.0
   7.401705906891451    0.000000000000000    0.000000000000000
  -3.700852953445725    6.410065265402606    0.000000000000000
   0.000000000000000    0.000000000000000   20.000000000000000
C
18
Direct
  -0.000780023259199   -0.001560046518399    0.500000000000000
   0.333333333333333    0.000000000000000    0.500000000000000
   0.666666666666667    0.000000000000000    0.500000000000000
   0.000000000000000    0.333333333333333    0.500000000000000
   0.333333333333333    0.333333333333333    0.500000000000000
   0.666666666666667    0.333333333333333    0.500000000000000
   0.000000000000000    0.666666666666667    0.500000000000000
   0.333333333333333    0.666666666666667    0.500000000000000
   0.666666666666667    0.666666666666667    0.500000000000000
   0.222222222222222    0.111111111111111    0.500000000000000
   0.554775532296356    0.109551064592712    0.500000000000000
   0.888888888888889    0.111111111111111    0.500000000000000
   0.222222222222222    0.444444444444444    0.500000000000000
   0.555555555555556    0.444444444444444    0.500000000000000
   0.888888888888889    0.444444444444444    0.500000000000000
   0.222222222222222    0.777777777777778    0.500000000000000
   0.555555555555556    0.777777777777778    0.500000000000000
   0.888888888888889    0.777777777777778    0.500000000000000
