graphene
   1.00000000000000
     2.4672353022971500    0.0000000000000000    0.0000000000000000
    -1.2336176511485750    2.1366884218008684    0.0000000000000000
     0.0000000000000000    0.0000000000000000   20.0000000000000000
   C
   2
Direct
  0.0000000000000000  0.0000000000000000  0.5000000000000000
  0.6666666666666667  0.3333333333333333  0.5000000000000000
