7798222aaf90f7ca0dec2ab2693dff49f8120e09
1.0
   7.401705906891451    0.000000000000000    0.000000000000000
  -3.700852953445725    6.410065265402606    0.000000000000000
   0.000000000000000    0.000000000000000   20.000000000000000
C
18
Direct
  -0.001351039898882    0.000000000000000    0.500000000000000
   0.333333333333333    0.000000000000000    0.500000000000000
   0.666666666666667    0.000000000000000    0.500000000000000
   0.000000000000000    0.333333333333333    0.500000000000000
   0.333333333333333    0.333333333333333    0.500000000000000
   0.666666666666667    0.333333333333333    0.500000000000000
   0.000000000000000    0.666666666666667    0.500000000000000
   0.333333333333333    0.666666666666667    0.500000000000000
   0.666666666666667    0.666666666666667    0.500000000000000
   0.222222222222222    0.111111111111111    0.499500000000000
   0.555555555555556    0.111111111111111    0.500000000000000
   0.888888888888889    0.111111111111111    0.500000000000000
   0.222222222222222    0.444444444444444    0.500000000000000
   0.555555555555556    0.444444444444444    0.500000000000000
   0.888888888888889    0.444444444444444    0.500000000000000
   0.222222222222222    0.777777777777778    0.500000000000000
   0.555555555555556    0.777777777777778    0.500000000000000
   0.888888888888889    0.777777777777778    0.500000000000000
