generated by phonopy
   1.0
    17.7183897380148991    0.0000000000000000    0.0000000000000000
    -8.8591948690074496   15.3445756272744074    0.0000000000000000
     0.0000000000000000    0.0000000000000000   30.0000000000000000
Bi Te
  32   48
Direct
  0.0833333333333339  0.1666666666666661  0.4311614205476562
  0.3333333333333339  0.1666666666666661  0.4311614205476562
  0.5833333333333339  0.1666666666666661  0.4311614205476562
  0.8333333333333339  0.1666666666666661  0.4311614205476562
  0.0833333333333339  0.4166666666666661  0.4311614205476562
  0.3333333333333339  0.4166666666666661  0.4311614205476562
  0.5833333333333339  0.4166666666666661  0.4311614205476562
  0.8333333333333339  0.4166666666666661  0.4311614205476562
  0.0833333333333339  0.6666666666666661  0.4311614205476562
  0.3333333333333339  0.6666666666666661  0.4311614205476562
  0.5833333333333339  0.6666666666666661  0.4311614205476562
  0.8333333333333339  0.6666666666666661  0.4311614205476562
  0.0833333333333339  0.9166666666666661  0.4311614205476562
  0.3333333333333339  0.9166666666666661  0.4311614205476562
  0.5833333333333339  0.9166666666666661  0.4311614205476562
  0.8333333333333339  0.9166666666666661  0.4311614205476562
  0.1666666666666661  0.0833333333333339  0.5688385794523438
  0.4166666666666661  0.0833333333333339  0.5688385794523438
  0.6666666666666661  0.0833333333333339  0.5688385794523438
  0.9166666666666661  0.0833333333333339  0.5688385794523438
  0.1666666666666661  0.3333333333333339  0.5688385794523438
  0.4166666666666661  0.3333333333333339  0.5688385794523438
  0.6666666666666661  0.3333333333333339  0.5688385794523438
  0.9166666666666661  0.3333333333333339  0.5688385794523438
  0.1666666666666661  0.5833333333333339  0.5688385794523438
  0.4166666666666661  0.5833333333333339  0.5688385794523438
  0.6666666666666661  0.5833333333333339  0.5688385794523438
  0.9166666666666661  0.5833333333333339  0.5688385794523438
  0.1666666666666661  0.8333333333333339  0.5688385794523438
  0.4166666666666661  0.8333333333333339  0.5688385794523438
  0.6666666666666661  0.8333333333333339  0.5688385794523438
  0.9166666666666661  0.8333333333333339  0.5688385794523438
  0.1666666666666661  0.0833333333333339  0.3738557680561626
  0.4166666666666661  0.0833333333333339  0.3738557680561626
  0.6666666666666661  0.0833333333333339  0.3738557680561626
  0.9166666666666661  0.0833333333333339  0.3738557680561626
  0.1666666666666661  0.3333333333333339  0.3738557680561626
  0.4166666666666661  0.3333333333333339  0.3738557680561626
  0.6666666666666661  0.3333333333333339  0.3738557680561626
  0.9166666666666661  0.3333333333333339  0.3738557680561626
  0.1666666666666661  0.5833333333333339  0.3738557680561626
  0.4166666666666661  0.5833333333333339  0.3738557680561626
  0.6666666666666661  0.5833333333333339  0.3738557680561626
  0.9166666666666661  0.5833333333333339  0.3738557680561626
  0.1666666666666661  0.8333333333333339  0.3738557680561626
  0.4166666666666661  0.8333333333333339  0.3738557680561626
  0.6666666666666661  0.8333333333333339  0.3738557680561626
  0.9166666666666661  0.8333333333333339  0.3738557680561626
  0.0000000000000000  0.0000000000000000  0.5000000000000000
  0.2500000000000000  0.0000000000000000  0.5000000000000000
  0.5000000000000000  0.0000000000000000  0.5000000000000000
  0.7500000000000000  0.0000000000000000  0.5000000000000000
  0.0000000000000000  0.2500000000000000  0.5000000000000000
  0.2500000000000000  0.2500000000000000  0.5000000000000000
  0.5000000000000000  0.2500000000000000  0.5000000000000000
  0.7500000000000000  0.2500000000000000  0.5000000000000000
  0.0000000000000000  0.5000000000000000  0.5000000000000000
  0.2500000000000000  0.5000000000000000  0.5000000000000000
  0.5000000000000000  0.5000000000000000  0.5000000000000000
  0.7500000000000000  0.5000000000000000  0.5000000000000000
  0.0000000000000000  0.7500000000000000  0.5000000000000000
  0.2500000000000000  0.7500000000000000  0.5000000000000000
  0.5000000000000000  0.7500000000000000  0.5000000000000000
  0.7500000000000000  0.7500000000000000  0.5000000000000000
  0.0833333333333339  0.1666666666666661  0.6261442319438374
  0.3333333333333339  0.1666666666666661  0.6261442319438374
  0.5833333333333339  0.1666666666666661  0.6261442319438374
  0.8333333333333339  0.1666666666666661  0.6261442319438374
  0.0833333333333339  0.4166666666666661  0.6261442319438374
  0.3333333333333339  0.4166666666666661  0.6261442319438374
  0.5833333333333339  0.4166666666666661  0.6261442319438374
  0.8333333333333339  0.4166666666666661  0.6261442319438374
  0.0833333333333339  0.6666666666666661  0.6261442319438374
  0.3333333333333339  0.6666666666666661  0.6261442319438374
  0.5833333333333339  0.6666666666666661  0.6261442319438374
  0.8333333333333339  0.6666666666666661  0.6261442319438374
  0.0833333333333339  0.9166666666666661  0.6261442319438374
  0.3333333333333339  0.9166666666666661  0.6261442319438374
  0.5833333333333339  0.9166666666666661  0.6261442319438374
  0.8333333333333339  0.9166666666666661  0.6261442319438374
