"Bi2 Te3"
   1.00000000000000     
     4.4295974345037248    0.0000000000000000    0.0000000000000000
    -2.2147987172518624    3.8361439068186020    0.0000000000000000
     0.0000000000000000    0.0000000000000000   30.0000000000000000
   Bi   Te
    2    3
Direct
  0.3333333333333357  0.6666666666666643  0.4311614205476562
  0.6666666666666643  0.3333333333333357  0.5688385794523438
  0.6666666666666643  0.3333333333333357  0.3738557680561626
  0.0000000000000000  0.0000000000000000  0.5000000000000000
  0.3333333333333357  0.6666666666666643  0.6261442319438374
