# Basic #
SYSTEM = SCF
ISTART = 0
ICHARG = 2
ENCUT = 600
EDIFF = 1e-6
EDIFFG = -1e-6
# PREC = Accurate
# ADDGRID = .TRUE.
LREAL = Auto
LWAVE = .FALSE.
LCHARG = .FALSE.
ISMEAR = 0
SIGMA = 0.05
NELMIN = 6
NELM = 60
NCORE = 2
