"Re4 S8"
1.0
        6.4072594643         0.0000000000         0.0000000000
       -3.1535677151         5.7005973835         0.0000000000
        0.0000000000         0.0000000000        18.4418640137
   Re    S
    4    8
Direct
     0.001966947         0.001868387         0.496990174
     0.879807472         0.377707809         0.503009796
     0.452563018         0.403618664         0.500764251
     0.429211378         0.975957513         0.499235779
     0.295585126         0.130561769         0.405077696
     0.586189687         0.249014765         0.594922304
     0.794858873         0.623580396         0.426559448
     0.086915940         0.755996168         0.573440552
     0.123793349         0.293172419         0.585176468
     0.757981479         0.086404145         0.414823472
     0.624137104         0.785899639         0.564175487
     0.257637650         0.593676865         0.435824513
