0.020 (24 24 1) -> SC331
0
Gamma
7 7 1
0 0 0